RAW/XQ/fspd/X-n125-k30.vrp_seed-8.out
43572	32.676	38.173
