RAW/XQ/fspd/X-n125-k30.vrp_seed-8.sol
Route #1: 14 97 13 49 82
Route #2: 3 102
Route #3: 38 60 31
Route #4: 5 53 98
Route #5: 62 85 30 109 25 118 68 94 95
Route #6: 117 55 36 79 63 46 1 27 108
Route #7: 111 86 96
Route #8: 61 122 110
Route #9: 101 54 91 112 83
Route #10: 17 15 78 59 124 50 66 23 24
Route #11: 35 12 103 8
Route #12: 51 105 89 88 115 70 6 34 2 116 56
Route #13: 47 22 40 65 107 7 77 64
Route #14: 10 69 72 67
Route #15: 113 39 120 57
Route #16: 75 45 4 80 58
Route #17: 29 37 33 32
Route #18: 73 21 48 121 84
Route #19: 90 43 106 16 81 52 44 123
Route #20: 26 93
Route #21: 74 42 92 87 114 11 19 9 28
Route #22: 99 100 18 76
Route #23: 119 71 104 41 20
Cost 43572.000000